0001000001000001100000111000000000000000010100100100000001110000111100011000010001100000110001001101000000101000010000100000001000010000100000010000000000110000000100000001001000000000001000000100010000000000000100100100000000000000101000000100000000011000000100000000010000000000000001001000001000000100100000000000000100000001010000000000000000010000000000000
Number of colors used is 41001000001000001100010111000000000000000110100100100000001112000111100011000010021100000110001001101300000101000010000103000001000010000100030010000000000110000300100000001001000003000001000000100010010000000000100100100200000000000101000001100000000011000000140000000010000000000400001001000001000004100100000000000000130000001010000000000400000010000000000004